p cnf 7230 17
-5381 -5635 -5817 0
-5633 -5651 5815 0
-5367 -5631 -5813 0
5381 -5818 0
5633 -5816 0
5367 -5814 0
5817 5818 0
-5815 5816 0
5813 5814 0
5635 -5818 0
5651 -5816 0
5631 -5814 0
-5383 -5637 5820 0
5811 5812 0
-5811 -5812 0
5637 -5820 0
5383 -5820 0
